benchmarks_CP/INST_64x64/50/inst64x64_50_26.dzn
S=8;
start=[|
20,	-1,	-1,	-1,	-1,	54,	39,	26,	-1,	-1,	-1,	-1,	49,	-1,	-1,	45,	18,	61,	-1,	30,	-1,	-1,	-1,	-1,	53,	-1,	22,	17,	59,	56,	27,	-1,	15,	47,	-1,	9,	-1,	28,	51,	10,	41,	-1,	-1,	-1,	3,	-1,	-1,	4,	1,	-1,	21,	-1,	-1,	-1,	2,	-1,	46,	40,	-1,	44,	50,	11,	-1,	-1|
-1,	-1,	3,	-1,	-1,	19,	-1,	-1,	21,	-1,	36,	-1,	-1,	-1,	48,	-1,	-1,	8,	-1,	-1,	-1,	53,	59,	-1,	-1,	-1,	-1,	-1,	13,	-1,	-1,	5,	-1,	-1,	64,	-1,	46,	31,	32,	26,	-1,	-1,	54,	-1,	-1,	62,	-1,	-1,	-1,	60,	-1,	-1,	-1,	-1,	-1,	57,	37,	42,	-1,	35,	-1,	-1,	20,	-1|
21,	13,	-1,	29,	2,	-1,	16,	-1,	59,	3,	37,	-1,	-1,	46,	27,	58,	-1,	51,	-1,	-1,	-1,	55,	-1,	-1,	-1,	-1,	-1,	33,	-1,	9,	63,	-1,	5,	50,	53,	-1,	-1,	-1,	-1,	17,	-1,	-1,	-1,	-1,	14,	-1,	-1,	49,	11,	44,	-1,	20,	64,	15,	45,	-1,	-1,	-1,	41,	-1,	-1,	-1,	-1,	-1|
-1,	60,	53,	10,	-1,	58,	-1,	51,	-1,	62,	44,	30,	-1,	4,	-1,	39,	-1,	31,	23,	11,	38,	-1,	-1,	21,	-1,	-1,	34,	52,	64,	-1,	43,	18,	29,	-1,	2,	-1,	-1,	40,	54,	20,	-1,	50,	63,	32,	-1,	46,	-1,	59,	55,	-1,	6,	14,	-1,	25,	42,	-1,	19,	-1,	57,	-1,	8,	-1,	9,	-1|
31,	33,	24,	-1,	34,	-1,	8,	-1,	-1,	-1,	56,	11,	54,	41,	-1,	10,	9,	49,	-1,	-1,	3,	63,	17,	57,	58,	-1,	28,	-1,	55,	50,	15,	-1,	-1,	25,	-1,	-1,	-1,	-1,	-1,	37,	-1,	-1,	30,	61,	-1,	-1,	45,	2,	47,	-1,	-1,	40,	-1,	-1,	-1,	7,	-1,	-1,	-1,	-1,	62,	-1,	-1,	-1|
-1,	-1,	44,	59,	-1,	46,	25,	22,	18,	40,	64,	42,	20,	-1,	33,	8,	52,	-1,	-1,	-1,	-1,	6,	-1,	-1,	-1,	-1,	-1,	45,	-1,	-1,	-1,	21,	49,	-1,	-1,	55,	-1,	-1,	-1,	19,	35,	38,	-1,	53,	5,	11,	-1,	-1,	-1,	-1,	51,	31,	30,	28,	-1,	43,	60,	-1,	54,	58,	-1,	-1,	47,	-1|
30,	-1,	-1,	63,	-1,	49,	-1,	1,	-1,	-1,	23,	34,	-1,	-1,	19,	13,	20,	15,	-1,	54,	44,	-1,	-1,	-1,	-1,	24,	62,	25,	-1,	29,	36,	-1,	11,	-1,	52,	45,	-1,	4,	-1,	43,	37,	55,	28,	-1,	-1,	-1,	17,	33,	-1,	-1,	46,	-1,	41,	-1,	-1,	22,	-1,	-1,	-1,	61,	26,	39,	-1,	-1|
-1,	62,	-1,	-1,	-1,	27,	-1,	-1,	-1,	50,	35,	29,	-1,	-1,	55,	26,	-1,	-1,	-1,	42,	43,	-1,	28,	-1,	51,	-1,	4,	44,	-1,	-1,	16,	54,	41,	-1,	38,	34,	-1,	-1,	57,	-1,	6,	-1,	13,	-1,	10,	-1,	-1,	21,	-1,	-1,	-1,	37,	49,	-1,	3,	12,	2,	-1,	25,	5,	63,	-1,	-1,	-1|
18,	16,	14,	22,	-1,	50,	-1,	3,	55,	-1,	-1,	-1,	43,	-1,	26,	-1,	-1,	42,	29,	15,	-1,	-1,	-1,	-1,	-1,	9,	19,	35,	48,	30,	59,	45,	39,	34,	-1,	-1,	4,	57,	-1,	1,	-1,	13,	10,	-1,	-1,	-1,	58,	-1,	17,	-1,	54,	-1,	8,	-1,	-1,	-1,	47,	32,	11,	53,	37,	41,	52,	5|
34,	42,	-1,	27,	-1,	17,	21,	7,	46,	14,	57,	-1,	-1,	28,	-1,	-1,	-1,	-1,	32,	33,	20,	-1,	-1,	18,	-1,	55,	-1,	36,	56,	-1,	37,	-1,	-1,	19,	13,	25,	-1,	26,	44,	62,	-1,	11,	48,	-1,	52,	4,	41,	30,	49,	-1,	-1,	-1,	-1,	47,	38,	-1,	-1,	-1,	-1,	-1,	-1,	-1,	-1,	31|
6,	55,	-1,	-1,	-1,	12,	26,	-1,	22,	-1,	33,	61,	-1,	-1,	4,	49,	64,	25,	45,	35,	47,	44,	-1,	-1,	-1,	-1,	-1,	29,	-1,	-1,	3,	41,	53,	-1,	15,	40,	63,	14,	-1,	8,	18,	-1,	-1,	20,	-1,	-1,	51,	-1,	-1,	5,	-1,	50,	13,	1,	36,	16,	-1,	-1,	-1,	-1,	48,	-1,	-1,	-1|
33,	-1,	-1,	-1,	-1,	-1,	45,	-1,	5,	20,	-1,	21,	-1,	-1,	16,	56,	-1,	-1,	-1,	52,	-1,	-1,	-1,	46,	-1,	40,	-1,	1,	28,	-1,	42,	-1,	48,	32,	-1,	47,	-1,	43,	-1,	7,	-1,	-1,	-1,	-1,	53,	39,	55,	-1,	-1,	-1,	-1,	-1,	12,	-1,	-1,	-1,	38,	-1,	-1,	36,	-1,	-1,	-1,	51|
58,	-1,	19,	37,	-1,	-1,	-1,	-1,	31,	53,	-1,	2,	17,	-1,	18,	-1,	50,	59,	-1,	-1,	48,	-1,	-1,	9,	57,	4,	49,	-1,	-1,	-1,	-1,	63,	-1,	45,	-1,	64,	-1,	55,	-1,	11,	-1,	-1,	-1,	38,	-1,	-1,	33,	-1,	-1,	22,	-1,	32,	6,	14,	60,	-1,	-1,	56,	-1,	42,	20,	7,	21,	-1|
-1,	36,	25,	2,	-1,	57,	54,	32,	-1,	35,	-1,	40,	-1,	-1,	29,	-1,	14,	-1,	24,	28,	-1,	62,	37,	-1,	-1,	-1,	15,	39,	-1,	-1,	-1,	-1,	-1,	-1,	-1,	-1,	-1,	-1,	6,	-1,	9,	-1,	-1,	-1,	61,	-1,	43,	-1,	44,	59,	-1,	11,	21,	-1,	33,	48,	4,	-1,	13,	-1,	64,	-1,	26,	60|
-1,	-1,	1,	13,	-1,	64,	29,	-1,	3,	59,	-1,	-1,	-1,	38,	9,	-1,	-1,	-1,	30,	57,	-1,	-1,	16,	-1,	-1,	11,	50,	10,	-1,	12,	61,	-1,	28,	36,	-1,	22,	-1,	-1,	41,	-1,	46,	21,	27,	-1,	44,	-1,	-1,	-1,	-1,	-1,	53,	-1,	-1,	31,	-1,	52,	-1,	63,	40,	-1,	33,	-1,	-1,	14|
-1,	-1,	23,	52,	-1,	-1,	-1,	-1,	45,	-1,	-1,	-1,	1,	30,	-1,	47,	-1,	-1,	21,	13,	-1,	-1,	34,	2,	14,	62,	-1,	16,	38,	-1,	-1,	-1,	31,	-1,	12,	-1,	-1,	61,	18,	9,	8,	-1,	5,	22,	26,	3,	49,	-1,	37,	55,	41,	46,	63,	-1,	57,	-1,	-1,	29,	15,	24,	35,	17,	-1,	27|
46,	38,	-1,	60,	25,	28,	-1,	56,	30,	10,	47,	5,	-1,	-1,	50,	18,	-1,	-1,	52,	14,	-1,	49,	23,	-1,	-1,	-1,	-1,	21,	-1,	-1,	-1,	-1,	9,	-1,	27,	-1,	1,	42,	3,	-1,	-1,	-1,	-1,	37,	-1,	54,	-1,	-1,	20,	-1,	26,	-1,	-1,	63,	48,	-1,	45,	59,	-1,	32,	-1,	31,	-1,	43|
13,	-1,	-1,	-1,	-1,	-1,	-1,	4,	-1,	1,	-1,	-1,	-1,	-1,	-1,	19,	8,	-1,	11,	-1,	32,	-1,	31,	27,	-1,	59,	18,	9,	-1,	60,	-1,	36,	-1,	58,	17,	-1,	54,	-1,	-1,	-1,	-1,	-1,	-1,	30,	-1,	-1,	35,	-1,	-1,	42,	-1,	-1,	5,	3,	55,	6,	50,	16,	-1,	14,	28,	12,	39,	-1|
-1,	45,	-1,	-1,	-1,	16,	9,	10,	42,	-1,	-1,	-1,	-1,	-1,	22,	46,	-1,	-1,	-1,	55,	4,	-1,	53,	48,	-1,	-1,	-1,	11,	-1,	-1,	-1,	-1,	-1,	-1,	-1,	35,	-1,	59,	52,	-1,	-1,	19,	17,	-1,	28,	-1,	21,	-1,	50,	54,	-1,	1,	40,	33,	-1,	-1,	44,	7,	3,	-1,	-1,	8,	-1,	-1|
14,	-1,	-1,	-1,	-1,	-1,	-1,	21,	-1,	-1,	3,	-1,	-1,	-1,	-1,	-1,	-1,	19,	-1,	47,	-1,	22,	56,	-1,	15,	-1,	-1,	4,	45,	-1,	-1,	-1,	-1,	18,	63,	-1,	32,	-1,	-1,	50,	-1,	-1,	55,	-1,	-1,	-1,	26,	38,	28,	-1,	7,	-1,	-1,	62,	-1,	30,	41,	61,	53,	46,	-1,	64,	-1,	-1|
-1,	53,	-1,	-1,	-1,	-1,	52,	50,	11,	-1,	-1,	-1,	-1,	59,	-1,	38,	-1,	12,	-1,	-1,	30,	45,	-1,	-1,	6,	35,	-1,	43,	-1,	-1,	-1,	-1,	-1,	48,	20,	-1,	-1,	-1,	23,	-1,	-1,	-1,	-1,	-1,	-1,	8,	-1,	-1,	64,	-1,	-1,	39,	-1,	-1,	-1,	-1,	24,	13,	21,	51,	36,	-1,	58,	-1|
40,	-1,	-1,	-1,	39,	31,	51,	29,	8,	45,	62,	-1,	-1,	23,	43,	28,	-1,	-1,	1,	-1,	-1,	-1,	46,	35,	-1,	-1,	-1,	-1,	22,	-1,	25,	-1,	36,	24,	-1,	-1,	53,	-1,	30,	-1,	-1,	33,	-1,	59,	9,	-1,	18,	52,	-1,	2,	-1,	60,	47,	32,	-1,	34,	-1,	-1,	-1,	-1,	-1,	55,	27,	-1|
59,	-1,	-1,	-1,	-1,	61,	1,	-1,	-1,	-1,	-1,	-1,	33,	55,	-1,	29,	3,	-1,	50,	-1,	28,	43,	58,	42,	-1,	57,	8,	-1,	-1,	-1,	-1,	-1,	-1,	2,	25,	41,	21,	-1,	-1,	22,	-1,	15,	-1,	63,	51,	5,	14,	34,	-1,	-1,	17,	38,	9,	23,	-1,	13,	-1,	20,	62,	-1,	-1,	-1,	60,	30|
55,	22,	-1,	32,	-1,	23,	33,	-1,	-1,	-1,	54,	-1,	-1,	14,	-1,	-1,	-1,	64,	51,	63,	59,	20,	25,	-1,	-1,	-1,	-1,	-1,	-1,	42,	-1,	62,	-1,	13,	-1,	61,	-1,	46,	-1,	-1,	40,	16,	-1,	-1,	-1,	-1,	-1,	53,	-1,	-1,	45,	-1,	-1,	-1,	-1,	11,	48,	18,	9,	-1,	-1,	49,	38,	19|
-1,	21,	-1,	-1,	3,	6,	60,	-1,	26,	-1,	30,	-1,	-1,	56,	-1,	-1,	44,	-1,	-1,	-1,	19,	-1,	-1,	1,	12,	45,	27,	-1,	-1,	-1,	14,	-1,	22,	10,	34,	37,	39,	-1,	-1,	59,	25,	-1,	38,	28,	-1,	-1,	-1,	-1,	31,	-1,	43,	-1,	4,	8,	-1,	46,	13,	36,	-1,	57,	-1,	33,	-1,	-1|
26,	29,	-1,	53,	-1,	43,	64,	17,	-1,	-1,	-1,	-1,	34,	-1,	-1,	-1,	12,	9,	42,	16,	55,	-1,	20,	-1,	-1,	37,	-1,	32,	31,	49,	56,	52,	38,	3,	-1,	-1,	45,	-1,	-1,	4,	-1,	41,	-1,	18,	1,	-1,	-1,	46,	-1,	-1,	11,	27,	23,	-1,	25,	35,	-1,	-1,	-1,	-1,	39,	54,	-1,	-1|
39,	-1,	-1,	-1,	-1,	-1,	-1,	52,	6,	63,	-1,	18,	38,	-1,	-1,	24,	-1,	13,	-1,	-1,	33,	10,	-1,	30,	60,	15,	46,	-1,	-1,	-1,	-1,	4,	20,	-1,	-1,	-1,	62,	17,	2,	48,	21,	34,	-1,	27,	-1,	16,	-1,	14,	-1,	29,	37,	5,	32,	-1,	49,	53,	-1,	8,	7,	-1,	25,	-1,	35,	-1|
38,	-1,	-1,	8,	-1,	-1,	47,	-1,	-1,	-1,	55,	-1,	-1,	-1,	-1,	50,	-1,	18,	64,	6,	-1,	-1,	26,	-1,	-1,	3,	43,	-1,	-1,	34,	53,	10,	42,	-1,	-1,	58,	9,	11,	7,	25,	-1,	-1,	-1,	-1,	63,	-1,	5,	-1,	-1,	-1,	61,	-1,	-1,	52,	13,	20,	22,	60,	-1,	1,	-1,	4,	-1,	41|
-1,	23,	57,	24,	-1,	13,	4,	45,	25,	-1,	-1,	52,	42,	12,	14,	60,	-1,	37,	54,	27,	40,	5,	8,	-1,	-1,	-1,	17,	-1,	20,	-1,	-1,	28,	-1,	-1,	-1,	-1,	-1,	-1,	26,	44,	-1,	2,	35,	19,	-1,	-1,	11,	61,	18,	-1,	-1,	33,	-1,	6,	-1,	-1,	9,	31,	-1,	29,	47,	-1,	-1,	-1|
-1,	-1,	-1,	41,	-1,	-1,	2,	12,	20,	-1,	-1,	-1,	-1,	9,	62,	32,	11,	35,	53,	-1,	-1,	25,	-1,	-1,	36,	-1,	-1,	47,	18,	-1,	-1,	59,	-1,	60,	14,	27,	-1,	23,	5,	54,	-1,	52,	-1,	4,	49,	40,	39,	-1,	-1,	-1,	-1,	42,	26,	57,	17,	-1,	-1,	34,	48,	30,	45,	6,	3,	21|
37,	27,	-1,	36,	30,	-1,	-1,	59,	53,	-1,	-1,	-1,	-1,	33,	-1,	-1,	-1,	-1,	-1,	38,	34,	-1,	3,	60,	-1,	-1,	-1,	26,	-1,	41,	5,	16,	-1,	-1,	-1,	-1,	-1,	-1,	-1,	-1,	62,	-1,	-1,	56,	-1,	-1,	-1,	-1,	-1,	64,	-1,	45,	1,	-1,	28,	19,	-1,	-1,	-1,	20,	14,	63,	-1,	-1|
62,	35,	34,	1,	-1,	55,	-1,	20,	13,	23,	-1,	-1,	45,	-1,	-1,	48,	41,	4,	57,	-1,	36,	2,	-1,	-1,	-1,	-1,	-1,	-1,	-1,	-1,	38,	-1,	64,	-1,	-1,	18,	-1,	52,	61,	-1,	60,	53,	29,	-1,	15,	33,	-1,	-1,	16,	14,	-1,	59,	-1,	39,	-1,	9,	-1,	-1,	12,	-1,	27,	58,	-1,	11|
-1,	-1,	43,	-1,	-1,	26,	-1,	49,	-1,	30,	-1,	-1,	14,	45,	5,	3,	19,	20,	9,	62,	-1,	29,	11,	-1,	55,	41,	23,	59,	-1,	-1,	13,	-1,	27,	64,	48,	-1,	16,	-1,	8,	34,	-1,	61,	57,	60,	42,	25,	-1,	-1,	-1,	-1,	-1,	-1,	46,	-1,	40,	47,	10,	-1,	36,	31,	1,	-1,	32,	-1|
-1,	56,	-1,	44,	-1,	62,	32,	-1,	58,	26,	46,	25,	18,	-1,	-1,	-1,	-1,	45,	28,	48,	-1,	57,	-1,	-1,	-1,	-1,	12,	60,	-1,	-1,	22,	-1,	37,	4,	7,	3,	38,	-1,	-1,	21,	-1,	-1,	-1,	9,	33,	-1,	-1,	10,	-1,	-1,	-1,	-1,	11,	53,	30,	-1,	-1,	6,	42,	52,	-1,	-1,	55,	-1|
-1,	1,	58,	57,	51,	-1,	3,	19,	29,	-1,	-1,	-1,	7,	-1,	-1,	20,	23,	39,	-1,	8,	37,	-1,	21,	26,	9,	64,	-1,	34,	-1,	44,	49,	48,	17,	-1,	50,	59,	-1,	13,	33,	31,	-1,	-1,	43,	54,	22,	-1,	-1,	-1,	52,	-1,	5,	-1,	27,	-1,	-1,	41,	-1,	-1,	38,	-1,	-1,	47,	-1,	56|
-1,	61,	21,	-1,	59,	8,	-1,	-1,	44,	12,	-1,	-1,	50,	19,	-1,	-1,	36,	-1,	-1,	7,	-1,	-1,	47,	49,	17,	-1,	-1,	-1,	57,	-1,	52,	-1,	23,	62,	-1,	11,	41,	58,	-1,	56,	15,	27,	-1,	-1,	-1,	-1,	-1,	-1,	25,	4,	1,	-1,	20,	38,	-1,	60,	64,	-1,	-1,	-1,	5,	-1,	48,	34|
2,	-1,	-1,	-1,	-1,	-1,	-1,	55,	43,	52,	1,	36,	-1,	-1,	31,	64,	42,	-1,	60,	61,	56,	-1,	-1,	-1,	63,	25,	-1,	38,	-1,	58,	32,	26,	40,	-1,	18,	19,	-1,	45,	-1,	29,	7,	5,	16,	23,	-1,	-1,	48,	-1,	-1,	37,	13,	-1,	51,	-1,	9,	-1,	-1,	-1,	-1,	11,	41,	46,	49,	8|
-1,	-1,	17,	-1,	45,	41,	34,	-1,	-1,	22,	-1,	-1,	-1,	-1,	-1,	27,	38,	-1,	-1,	59,	31,	50,	43,	-1,	-1,	-1,	47,	-1,	36,	-1,	-1,	-1,	10,	-1,	-1,	-1,	14,	49,	53,	-1,	26,	1,	-1,	-1,	30,	55,	32,	-1,	42,	-1,	28,	29,	18,	58,	-1,	-1,	-1,	3,	-1,	54,	4,	19,	62,	37|
9,	7,	-1,	5,	-1,	20,	-1,	38,	-1,	-1,	42,	24,	60,	-1,	34,	33,	-1,	58,	-1,	1,	-1,	-1,	64,	53,	-1,	-1,	51,	-1,	-1,	37,	31,	40,	52,	28,	30,	-1,	43,	-1,	-1,	-1,	49,	-1,	21,	45,	4,	-1,	62,	56,	14,	8,	-1,	-1,	-1,	-1,	26,	-1,	-1,	44,	29,	23,	-1,	-1,	57,	-1|
22,	48,	-1,	31,	-1,	-1,	28,	-1,	-1,	-1,	38,	37,	-1,	6,	-1,	-1,	-1,	2,	15,	10,	18,	-1,	-1,	44,	-1,	1,	-1,	-1,	-1,	11,	45,	3,	25,	-1,	26,	-1,	-1,	51,	36,	24,	-1,	-1,	-1,	41,	-1,	-1,	-1,	-1,	19,	39,	34,	55,	-1,	43,	62,	-1,	-1,	33,	-1,	-1,	-1,	-1,	7,	61|
56,	30,	27,	58,	-1,	-1,	18,	-1,	-1,	-1,	16,	-1,	55,	22,	20,	-1,	-1,	-1,	-1,	45,	53,	-1,	-1,	4,	-1,	-1,	1,	13,	-1,	54,	60,	-1,	-1,	40,	-1,	12,	-1,	41,	64,	-1,	-1,	39,	61,	-1,	-1,	-1,	3,	-1,	-1,	49,	-1,	-1,	-1,	-1,	43,	26,	-1,	52,	5,	-1,	32,	21,	14,	-1|
-1,	-1,	46,	-1,	-1,	-1,	59,	-1,	1,	-1,	19,	48,	27,	58,	7,	-1,	40,	28,	63,	-1,	-1,	16,	36,	-1,	32,	-1,	29,	14,	44,	39,	35,	30,	-1,	37,	60,	-1,	25,	-1,	34,	-1,	33,	-1,	-1,	-1,	-1,	18,	57,	9,	61,	24,	42,	47,	22,	17,	12,	-1,	-1,	50,	51,	-1,	55,	-1,	56,	38|
-1,	47,	-1,	-1,	49,	32,	-1,	36,	-1,	-1,	-1,	-1,	-1,	43,	42,	-1,	27,	57,	-1,	56,	2,	14,	-1,	-1,	45,	17,	48,	31,	-1,	6,	34,	53,	-1,	11,	19,	-1,	10,	-1,	-1,	51,	-1,	-1,	8,	-1,	-1,	-1,	59,	35,	-1,	-1,	-1,	3,	-1,	-1,	-1,	21,	-1,	64,	22,	60,	-1,	-1,	54,	15|
16,	-1,	-1,	21,	22,	45,	12,	-1,	63,	-1,	-1,	-1,	29,	50,	41,	-1,	-1,	-1,	31,	60,	-1,	-1,	-1,	5,	47,	-1,	-1,	23,	-1,	-1,	-1,	-1,	-1,	-1,	-1,	49,	-1,	-1,	56,	-1,	-1,	64,	-1,	58,	-1,	34,	1,	32,	-1,	62,	38,	-1,	-1,	10,	54,	51,	-1,	-1,	44,	-1,	6,	35,	37,	36|
29,	-1,	4,	64,	19,	-1,	-1,	63,	-1,	-1,	59,	-1,	-1,	18,	-1,	-1,	-1,	26,	38,	-1,	17,	54,	44,	-1,	8,	-1,	11,	-1,	33,	62,	-1,	-1,	-1,	-1,	61,	-1,	-1,	1,	55,	-1,	-1,	12,	-1,	-1,	-1,	-1,	13,	-1,	-1,	16,	-1,	-1,	34,	20,	-1,	-1,	25,	43,	39,	-1,	30,	-1,	-1,	-1|
1,	-1,	-1,	-1,	-1,	14,	13,	-1,	-1,	31,	11,	51,	44,	-1,	-1,	35,	30,	32,	12,	39,	49,	24,	-1,	-1,	-1,	18,	20,	41,	37,	25,	28,	38,	-1,	-1,	-1,	17,	-1,	-1,	48,	-1,	53,	47,	-1,	-1,	46,	-1,	-1,	-1,	-1,	6,	-1,	8,	-1,	-1,	58,	-1,	-1,	-1,	-1,	19,	10,	-1,	-1,	33|
-1,	26,	60,	51,	-1,	-1,	17,	-1,	64,	32,	4,	12,	8,	-1,	-1,	15,	-1,	-1,	-1,	41,	-1,	34,	-1,	-1,	-1,	-1,	-1,	58,	49,	10,	-1,	-1,	21,	-1,	42,	38,	22,	-1,	-1,	53,	20,	14,	-1,	-1,	-1,	63,	19,	55,	5,	48,	9,	36,	45,	30,	27,	-1,	23,	-1,	1,	40,	-1,	-1,	13,	-1|
-1,	-1,	-1,	-1,	33,	3,	-1,	9,	39,	47,	-1,	-1,	62,	26,	37,	-1,	1,	-1,	-1,	21,	51,	11,	-1,	20,	-1,	46,	-1,	55,	12,	24,	64,	-1,	-1,	-1,	43,	-1,	-1,	2,	-1,	32,	-1,	-1,	60,	-1,	48,	-1,	-1,	-1,	4,	-1,	15,	35,	-1,	-1,	-1,	28,	34,	41,	17,	27,	-1,	45,	8,	-1|
-1,	49,	-1,	20,	-1,	-1,	27,	24,	-1,	19,	-1,	26,	36,	31,	-1,	1,	61,	44,	62,	-1,	-1,	-1,	-1,	-1,	-1,	-1,	35,	40,	-1,	-1,	8,	-1,	-1,	-1,	22,	-1,	-1,	18,	10,	-1,	13,	-1,	-1,	-1,	-1,	9,	-1,	-1,	51,	-1,	14,	17,	33,	-1,	47,	-1,	-1,	23,	4,	-1,	7,	42,	-1,	-1|
8,	-1,	41,	48,	-1,	34,	30,	-1,	32,	56,	24,	62,	-1,	3,	35,	-1,	45,	-1,	20,	53,	-1,	42,	-1,	-1,	29,	54,	44,	37,	-1,	-1,	18,	-1,	-1,	-1,	-1,	-1,	64,	-1,	63,	-1,	-1,	17,	-1,	33,	-1,	22,	27,	-1,	-1,	7,	-1,	-1,	-1,	55,	46,	-1,	61,	-1,	-1,	-1,	60,	13,	-1,	57|
-1,	51,	-1,	-1,	21,	53,	44,	-1,	-1,	-1,	49,	45,	25,	60,	-1,	-1,	-1,	48,	46,	-1,	-1,	8,	-1,	6,	27,	42,	-1,	-1,	-1,	-1,	-1,	-1,	-1,	-1,	24,	-1,	-1,	9,	-1,	-1,	-1,	-1,	41,	34,	38,	-1,	52,	-1,	-1,	-1,	2,	30,	-1,	-1,	-1,	5,	40,	35,	-1,	-1,	-1,	62,	-1,	18|
-1,	17,	7,	-1,	29,	1,	43,	58,	-1,	54,	12,	-1,	-1,	20,	-1,	51,	21,	30,	-1,	-1,	-1,	9,	-1,	-1,	10,	5,	13,	-1,	-1,	-1,	-1,	-1,	57,	27,	39,	-1,	-1,	-1,	50,	-1,	19,	60,	-1,	-1,	-1,	32,	23,	44,	-1,	-1,	25,	26,	-1,	-1,	11,	49,	-1,	-1,	8,	28,	-1,	-1,	64,	-1|
3,	2,	-1,	-1,	57,	-1,	63,	-1,	-1,	33,	-1,	47,	22,	16,	-1,	-1,	28,	-1,	17,	26,	-1,	-1,	39,	13,	62,	-1,	53,	56,	-1,	-1,	55,	51,	45,	-1,	-1,	-1,	-1,	25,	-1,	49,	64,	4,	-1,	8,	-1,	50,	-1,	-1,	12,	40,	60,	-1,	19,	42,	-1,	-1,	58,	-1,	6,	41,	-1,	27,	24,	48|
-1,	14,	-1,	-1,	-1,	-1,	-1,	-1,	-1,	18,	53,	-1,	-1,	17,	-1,	-1,	2,	-1,	-1,	-1,	41,	31,	40,	-1,	-1,	-1,	45,	-1,	16,	-1,	-1,	-1,	55,	-1,	4,	-1,	-1,	7,	19,	-1,	30,	51,	49,	-1,	-1,	-1,	28,	62,	-1,	-1,	-1,	56,	-1,	35,	-1,	-1,	36,	21,	-1,	34,	-1,	-1,	29,	9|
-1,	-1,	13,	18,	32,	5,	-1,	-1,	9,	-1,	-1,	41,	63,	8,	-1,	4,	-1,	47,	37,	-1,	-1,	27,	49,	33,	-1,	48,	-1,	3,	-1,	-1,	-1,	-1,	30,	42,	62,	56,	31,	35,	28,	36,	-1,	29,	40,	39,	-1,	26,	-1,	-1,	-1,	-1,	57,	22,	-1,	64,	-1,	-1,	17,	-1,	-1,	38,	52,	1,	-1,	-1|
-1,	64,	-1,	62,	10,	56,	-1,	11,	7,	28,	5,	-1,	-1,	27,	46,	42,	-1,	63,	-1,	19,	-1,	-1,	-1,	14,	1,	20,	36,	-1,	-1,	15,	-1,	-1,	-1,	-1,	40,	21,	-1,	29,	-1,	-1,	-1,	45,	-1,	57,	-1,	-1,	-1,	-1,	-1,	9,	48,	-1,	-1,	-1,	-1,	3,	33,	37,	30,	50,	-1,	44,	-1,	-1|
-1,	-1,	-1,	17,	-1,	37,	22,	41,	-1,	-1,	50,	33,	39,	-1,	-1,	-1,	59,	-1,	-1,	34,	63,	-1,	19,	10,	-1,	-1,	52,	42,	14,	-1,	62,	-1,	-1,	30,	45,	-1,	11,	56,	-1,	-1,	-1,	44,	-1,	-1,	60,	43,	-1,	-1,	-1,	57,	16,	18,	-1,	-1,	-1,	1,	-1,	48,	20,	12,	24,	51,	53,	-1|
-1,	25,	-1,	-1,	12,	-1,	-1,	13,	14,	37,	-1,	-1,	26,	-1,	-1,	30,	51,	-1,	27,	64,	-1,	1,	-1,	54,	-1,	8,	-1,	-1,	39,	-1,	-1,	-1,	34,	16,	3,	29,	24,	-1,	-1,	-1,	4,	35,	62,	55,	18,	-1,	-1,	-1,	-1,	-1,	-1,	-1,	-1,	-1,	-1,	45,	-1,	-1,	31,	17,	43,	-1,	-1,	-1|
-1,	44,	49,	-1,	4,	30,	19,	62,	12,	-1,	60,	56,	-1,	-1,	36,	11,	26,	29,	-1,	25,	-1,	18,	41,	8,	64,	43,	9,	-1,	-1,	-1,	54,	-1,	47,	-1,	10,	-1,	2,	-1,	-1,	52,	17,	-1,	33,	3,	32,	61,	-1,	6,	-1,	-1,	27,	-1,	-1,	13,	-1,	-1,	28,	58,	34,	39,	22,	14,	-1,	1|
7,	-1,	-1,	-1,	26,	-1,	-1,	-1,	19,	-1,	18,	-1,	41,	-1,	24,	6,	-1,	56,	-1,	-1,	-1,	-1,	52,	-1,	-1,	-1,	-1,	-1,	-1,	-1,	10,	1,	-1,	-1,	-1,	-1,	-1,	32,	-1,	23,	-1,	-1,	-1,	-1,	-1,	59,	-1,	-1,	-1,	11,	63,	51,	35,	-1,	-1,	-1,	62,	-1,	49,	13,	44,	-1,	-1,	-1|
53,	32,	47,	-1,	-1,	-1,	24,	2,	-1,	-1,	8,	22,	-1,	21,	-1,	9,	-1,	3,	-1,	17,	-1,	-1,	57,	11,	4,	44,	-1,	61,	-1,	35,	40,	49,	-1,	-1,	-1,	-1,	20,	50,	27,	-1,	5,	7,	-1,	-1,	39,	-1,	-1,	-1,	26,	-1,	-1,	-1,	28,	-1,	6,	37,	63,	-1,	-1,	64,	42,	-1,	-1,	-1|
27,	54,	10,	9,	52,	-1,	20,	35,	-1,	-1,	-1,	-1,	-1,	29,	-1,	44,	49,	-1,	-1,	-1,	58,	-1,	38,	-1,	-1,	6,	-1,	-1,	47,	-1,	19,	-1,	-1,	-1,	55,	26,	61,	64,	-1,	28,	-1,	42,	14,	-1,	-1,	-1,	30,	11,	-1,	-1,	3,	24,	-1,	-1,	50,	39,	8,	-1,	37,	18,	21,	25,	16,	-1|
36,	-1,	28,	34,	-1,	-1,	40,	60,	-1,	43,	-1,	-1,	-1,	53,	-1,	-1,	-1,	14,	-1,	-1,	-1,	39,	-1,	-1,	-1,	-1,	-1,	-1,	-1,	-1,	-1,	37,	63,	7,	-1,	8,	-1,	44,	-1,	-1,	-1,	10,	-1,	49,	13,	45,	56,	25,	41,	-1,	62,	52,	-1,	-1,	-1,	64,	11,	19,	-1,	-1,	38,	29,	4,	-1|
-1,	8,	-1,	14,	-1,	-1,	-1,	33,	4,	57,	25,	20,	-1,	-1,	-1,	-1,	-1,	-1,	44,	32,	16,	-1,	48,	-1,	-1,	-1,	-1,	30,	-1,	-1,	41,	-1,	-1,	51,	49,	-1,	60,	-1,	62,	18,	-1,	24,	15,	-1,	-1,	-1,	64,	22,	34,	47,	19,	-1,	53,	-1,	-1,	17,	7,	-1,	-1,	9,	40,	-1,	-1,	-1|];
