sudoku-ls/benchmarks_LEQ/INST_64x64/50/inst64x64_50_26.txt
8
1
20	6	-1	42	36	54	39	-1	38	-1	14	43	-1	-1	-1	-1	-1	61	-1	30	-1	60	-1	-1	-1	23	-1	17	59	-1	27	-1	-1	47	-1	-1	13	28	51	10	-1	-1	34	-1	-1	-1	8	4	-1	-1	-1	-1	-1	19	2	24	46	40	-1	-1	50	-1	-1	29
50	43	3	-1	-1	19	-1	-1	21	-1	36	17	-1	52	-1	22	34	8	-1	29	-1	53	-1	-1	11	2	-1	-1	13	-1	-1	-1	61	-1	64	-1	-1	-1	-1	-1	-1	56	54	-1	-1	62	15	27	63	-1	-1	-1	39	-1	16	57	37	42	-1	35	49	-1	-1	55
21	-1	-1	29	2	-1	16	-1	-1	3	37	31	32	-1	-1	58	-1	-1	25	-1	10	-1	-1	-1	19	39	-1	-1	60	9	-1	-1	5	-1	-1	-1	35	-1	-1	17	12	-1	18	26	14	47	7	-1	11	-1	8	-1	64	-1	-1	-1	1	-1	-1	6	23	34	-1	-1
5	60	53	-1	-1	58	37	51	-1	62	-1	30	28	-1	12	39	13	31	23	11	-1	26	1	21	-1	49	34	-1	-1	-1	43	18	-1	-1	-1	7	3	-1	-1	-1	22	-1	-1	-1	36	-1	24	59	-1	-1	-1	14	-1	-1	42	33	19	-1	-1	16	8	-1	-1	45
31	33	24	4	34	-1	-1	18	-1	5	-1	-1	-1	41	-1	-1	9	49	-1	46	-1	-1	17	-1	58	32	28	-1	-1	50	-1	-1	6	-1	-1	14	23	27	-1	37	39	48	30	61	-1	-1	-1	-1	47	13	35	-1	29	-1	52	-1	-1	-1	-1	43	-1	-1	-1	12
-1	15	44	-1	17	46	25	22	18	40	-1	42	-1	-1	-1	-1	52	27	-1	-1	62	6	2	7	37	10	57	45	26	-1	48	21	-1	63	-1	55	36	24	12	-1	-1	38	23	-1	-1	-1	-1	16	-1	34	-1	-1	-1	28	-1	-1	-1	14	-1	58	-1	32	-1	-1
30	-1	-1	63	-1	49	-1	-1	-1	6	-1	34	16	-1	19	-1	20	-1	47	54	-1	40	-1	58	-1	24	62	-1	8	-1	-1	14	-1	21	-1	45	-1	4	-1	-1	37	55	28	42	-1	-1	17	33	-1	-1	46	-1	-1	-1	5	22	-1	-1	56	61	-1	-1	51	7
-1	62	-1	61	-1	27	-1	47	60	50	35	-1	-1	24	55	26	56	33	-1	42	-1	48	28	-1	51	31	-1	44	-1	-1	16	54	41	22	-1	34	58	8	57	-1	-1	-1	-1	-1	-1	1	20	21	-1	23	-1	-1	-1	-1	3	-1	2	-1	25	-1	-1	52	-1	64
18	16	-1	22	44	50	-1	3	55	-1	6	-1	-1	36	26	-1	-1	-1	29	15	-1	7	-1	12	-1	9	-1	35	-1	-1	-1	-1	-1	34	-1	-1	4	57	38	-1	-1	-1	-1	-1	-1	-1	-1	-1	-1	25	-1	28	-1	2	-1	-1	-1	32	11	-1	-1	41	-1	-1
-1	42	40	27	-1	-1	-1	-1	-1	14	-1	-1	15	-1	-1	12	54	-1	32	-1	-1	-1	-1	-1	5	-1	-1	36	56	-1	-1	2	-1	19	13	25	-1	26	44	62	16	-1	48	35	52	4	-1	30	-1	-1	29	23	-1	-1	-1	58	-1	-1	-1	8	-1	-1	59	-1
6	-1	59	38	-1	12	26	46	22	-1	-1	-1	11	37	-1	49	64	25	-1	35	47	44	27	-1	7	-1	31	29	17	-1	3	-1	-1	-1	15	40	63	-1	21	-1	-1	-1	32	20	-1	-1	-1	-1	56	5	-1	50	13	1	36	-1	-1	2	-1	-1	-1	28	-1	58
33	31	-1	-1	-1	10	-1	-1	-1	-1	-1	21	19	34	16	-1	63	23	49	52	-1	-1	4	-1	24	-1	-1	1	28	-1	42	25	48	32	59	-1	37	-1	-1	-1	-1	-1	-1	14	53	39	55	-1	-1	3	-1	64	12	-1	15	-1	38	-1	50	-1	-1	-1	-1	-1
-1	-1	-1	37	-1	47	-1	39	-1	-1	-1	-1	17	-1	18	-1	-1	59	-1	-1	48	36	51	9	57	4	49	54	-1	13	-1	-1	3	45	23	-1	-1	-1	29	11	28	-1	-1	-1	-1	15	33	-1	-1	-1	-1	32	-1	-1	-1	61	-1	-1	46	-1	-1	-1	-1	25
-1	-1	25	2	20	57	-1	-1	-1	35	-1	40	-1	-1	-1	-1	-1	-1	24	28	1	62	37	-1	-1	-1	15	39	52	53	-1	8	56	-1	-1	-1	-1	10	-1	27	-1	-1	-1	50	61	-1	-1	-1	-1	-1	30	-1	-1	-1	-1	48	-1	-1	13	55	64	-1	26	60
-1	24	-1	-1	62	64	29	15	-1	-1	-1	-1	48	38	9	54	17	6	-1	57	5	-1	16	55	-1	11	50	-1	32	-1	61	58	-1	-1	35	22	-1	60	-1	2	-1	-1	27	47	44	7	25	37	-1	-1	-1	-1	-1	31	19	-1	18	63	40	-1	-1	-1	-1	-1
-1	4	23	52	53	60	-1	-1	-1	-1	10	50	-1	-1	32	47	-1	11	21	13	39	-1	-1	2	14	62	64	-1	38	-1	33	-1	31	54	-1	20	42	61	18	-1	-1	59	5	-1	-1	-1	49	-1	-1	55	41	46	-1	7	-1	40	-1	-1	-1	-1	-1	-1	-1	27
46	38	-1	-1	-1	28	-1	56	30	-1	47	-1	-1	-1	-1	-1	57	-1	52	-1	6	49	-1	62	34	-1	2	-1	53	16	24	-1	9	29	-1	44	-1	-1	-1	-1	11	-1	-1	37	-1	-1	-1	-1	-1	-1	26	-1	-1	63	-1	-1	45	59	35	-1	17	-1	33	-1
13	63	15	-1	37	24	-1	-1	34	1	61	53	64	25	-1	19	-1	7	-1	2	-1	-1	-1	-1	33	59	-1	9	29	60	-1	-1	-1	-1	-1	51	-1	38	-1	-1	-1	23	-1	30	-1	56	-1	47	-1	-1	52	-1	5	3	55	6	-1	16	-1	14	28	12	-1	22
64	-1	-1	-1	47	16	-1	-1	-1	36	20	58	51	32	22	-1	-1	-1	26	55	4	-1	-1	-1	31	63	-1	11	-1	38	30	56	60	-1	-1	35	-1	-1	-1	-1	-1	19	17	-1	-1	2	-1	41	50	-1	-1	-1	40	-1	14	18	44	-1	-1	-1	-1	8	6	-1
14	-1	2	43	-1	44	-1	21	-1	-1	-1	27	-1	-1	39	-1	33	-1	-1	-1	-1	-1	-1	17	-1	12	-1	4	45	-1	-1	-1	-1	-1	-1	-1	32	-1	-1	50	42	-1	55	-1	24	-1	26	-1	-1	35	-1	57	-1	-1	51	-1	-1	61	53	46	29	64	-1	54
-1	53	-1	-1	42	7	52	-1	11	2	63	-1	-1	59	-1	38	15	12	-1	-1	30	-1	9	34	-1	-1	-1	43	-1	-1	47	-1	-1	-1	20	4	-1	37	23	14	-1	49	-1	-1	-1	-1	60	3	64	-1	-1	39	-1	-1	-1	25	-1	-1	21	-1	-1	5	58	40
-1	57	-1	-1	-1	-1	-1	29	8	45	62	13	-1	-1	-1	-1	16	-1	1	-1	54	61	46	35	49	-1	5	7	-1	48	25	-1	36	24	-1	10	-1	-1	-1	-1	44	33	50	59	9	-1	18	-1	21	-1	-1	-1	47	32	41	34	-1	-1	63	-1	11	-1	-1	26
-1	18	35	-1	48	61	-1	27	24	-1	-1	7	-1	-1	6	-1	-1	-1	50	44	-1	43	58	42	54	-1	8	-1	46	-1	-1	64	-1	-1	25	-1	21	-1	-1	22	45	15	36	-1	-1	-1	-1	-1	10	-1	-1	38	9	-1	31	-1	-1	-1	62	47	56	-1	-1	-1
55	22	30	32	-1	23	33	-1	17	-1	-1	-1	-1	14	60	-1	-1	64	-1	63	59	20	-1	39	52	58	-1	28	-1	42	-1	62	-1	-1	56	-1	26	-1	-1	47	-1	-1	-1	10	-1	27	31	-1	-1	-1	-1	15	44	-1	37	-1	48	18	-1	-1	-1	49	-1	19
11	21	18	40	3	-1	60	-1	-1	29	30	16	2	-1	15	7	44	-1	48	49	19	-1	-1	1	-1	45	27	-1	23	-1	-1	35	22	-1	-1	-1	39	63	47	59	-1	32	-1	28	-1	20	-1	50	-1	-1	43	-1	-1	8	-1	-1	-1	36	52	57	-1	-1	-1	-1
26	-1	48	53	-1	-1	-1	-1	36	8	21	-1	34	5	-1	57	12	-1	42	16	-1	-1	-1	50	44	37	-1	-1	31	-1	56	52	-1	-1	-1	28	-1	6	13	4	47	41	59	-1	-1	-1	22	-1	7	63	-1	-1	23	60	-1	35	51	-1	-1	10	-1	54	-1	-1
-1	-1	61	54	-1	-1	-1	-1	6	63	-1	-1	38	-1	-1	24	47	13	-1	23	33	-1	45	-1	60	-1	-1	-1	1	-1	-1	4	-1	41	31	-1	62	17	-1	-1	21	-1	64	27	-1	-1	-1	14	36	29	-1	5	-1	-1	-1	53	-1	8	-1	59	-1	26	-1	44
38	28	32	-1	56	-1	47	31	-1	27	-1	-1	46	-1	44	-1	39	18	-1	-1	-1	-1	26	-1	30	-1	43	-1	-1	-1	-1	10	-1	57	-1	58	9	-1	7	-1	-1	36	37	-1	-1	24	5	45	-1	-1	-1	-1	-1	-1	-1	20	22	60	16	1	19	-1	-1	41
49	23	57	24	-1	13	-1	-1	-1	-1	41	-1	-1	12	-1	-1	-1	37	54	-1	40	5	-1	-1	-1	-1	17	-1	20	-1	58	28	32	-1	21	-1	56	-1	-1	-1	3	2	-1	-1	43	51	11	-1	-1	30	-1	33	-1	6	34	-1	9	31	-1	29	47	-1	-1	-1
44	10	51	-1	15	63	-1	-1	20	64	43	-1	-1	9	62	32	-1	-1	-1	-1	-1	-1	61	28	-1	33	24	47	18	8	29	-1	-1	-1	14	27	19	23	-1	54	55	-1	7	4	-1	-1	-1	-1	-1	58	-1	-1	-1	-1	17	-1	-1	-1	48	30	45	6	-1	-1
-1	-1	9	-1	30	-1	-1	59	-1	58	22	4	-1	33	10	31	-1	21	43	38	-1	-1	3	60	-1	-1	-1	26	11	41	-1	-1	50	55	-1	24	15	-1	-1	35	62	54	44	56	-1	-1	-1	57	2	64	47	-1	1	-1	-1	-1	32	17	23	20	14	63	-1	-1
62	35	34	1	46	-1	7	-1	13	23	-1	54	-1	47	17	48	-1	4	57	-1	36	2	63	-1	-1	-1	-1	-1	-1	-1	38	6	64	49	-1	18	40	52	61	-1	-1	53	-1	-1	15	33	10	26	16	14	-1	59	3	39	-1	9	-1	-1	12	-1	27	-1	-1	-1
35	-1	43	39	-1	-1	-1	49	-1	30	-1	-1	14	-1	-1	3	-1	20	-1	-1	52	-1	11	63	-1	-1	23	59	-1	-1	-1	33	27	-1	-1	-1	-1	22	8	-1	-1	-1	-1	-1	42	-1	-1	-1	54	-1	24	-1	-1	-1	-1	-1	-1	-1	-1	31	1	50	-1	53
-1	-1	-1	44	24	-1	32	-1	-1	-1	-1	-1	18	-1	-1	-1	35	-1	28	-1	-1	-1	14	-1	-1	-1	12	-1	2	-1	-1	39	-1	4	-1	-1	38	5	-1	-1	-1	-1	-1	-1	33	36	47	10	23	17	31	49	-1	-1	-1	-1	15	6	-1	52	-1	40	-1	-1
-1	1	58	57	51	36	3	-1	-1	-1	-1	-1	7	62	-1	20	23	-1	4	-1	37	46	21	-1	9	64	16	34	-1	44	49	-1	17	35	50	-1	-1	13	33	-1	-1	18	43	-1	-1	14	40	28	52	10	-1	-1	27	-1	61	41	12	30	38	-1	2	-1	-1	56
42	-1	-1	46	59	8	10	30	44	12	-1	9	50	-1	63	55	36	-1	40	-1	-1	33	47	-1	17	-1	-1	-1	57	-1	52	-1	-1	-1	-1	11	-1	58	-1	-1	15	-1	3	-1	-1	-1	37	-1	-1	4	-1	-1	-1	38	35	60	64	-1	26	-1	-1	-1	48	-1
-1	-1	33	47	-1	4	-1	-1	43	-1	1	-1	-1	-1	31	-1	42	34	60	61	56	30	-1	22	63	25	54	-1	62	58	32	-1	40	6	-1	19	-1	-1	-1	29	7	-1	-1	-1	-1	-1	-1	-1	-1	37	13	44	-1	-1	9	-1	-1	39	28	11	41	46	-1	-1
-1	12	-1	-1	-1	-1	-1	-1	35	-1	48	-1	-1	-1	8	-1	-1	16	-1	59	-1	50	43	51	-1	56	47	-1	36	-1	-1	7	10	-1	-1	-1	-1	-1	-1	46	26	-1	11	-1	30	55	-1	39	42	-1	28	29	-1	-1	64	-1	-1	3	-1	54	-1	19	62	37
9	7	16	5	-1	-1	-1	38	-1	-1	42	24	60	-1	34	-1	-1	58	-1	-1	-1	12	64	-1	50	-1	51	-1	-1	37	31	-1	52	-1	30	63	43	54	-1	61	-1	46	21	-1	4	13	62	-1	-1	8	-1	48	-1	-1	26	-1	35	-1	-1	23	-1	-1	57	17
-1	48	29	31	13	40	-1	14	54	-1	-1	37	-1	-1	-1	16	-1	-1	-1	10	-1	-1	-1	-1	-1	-1	30	-1	35	11	-1	3	25	-1	26	42	-1	51	36	-1	59	-1	52	41	-1	53	-1	20	19	39	-1	-1	57	43	62	56	-1	-1	58	21	-1	60	7	-1
56	30	27	58	8	-1	-1	42	-1	-1	-1	-1	-1	22	-1	34	-1	-1	19	45	-1	-1	-1	-1	2	50	-1	-1	-1	-1	-1	-1	44	40	-1	12	-1	-1	-1	57	36	-1	61	25	-1	38	-1	-1	33	49	-1	-1	37	11	43	-1	-1	-1	5	7	32	21	-1	-1
10	-1	-1	-1	41	-1	59	6	1	13	-1	-1	-1	-1	7	53	40	28	63	-1	8	16	-1	-1	-1	21	-1	-1	44	-1	-1	-1	54	37	60	-1	25	3	34	-1	33	26	-1	-1	45	-1	-1	-1	61	-1	-1	-1	-1	17	12	-1	-1	-1	51	4	-1	-1	-1	38
-1	47	-1	55	49	32	62	36	33	-1	-1	38	-1	-1	-1	5	-1	-1	-1	56	-1	14	-1	23	-1	17	-1	-1	-1	-1	-1	-1	-1	-1	19	50	-1	-1	4	-1	-1	28	-1	-1	41	44	-1	35	-1	1	-1	3	-1	-1	39	-1	26	-1	22	60	-1	-1	54	15
16	20	39	-1	22	45	-1	-1	63	17	-1	3	29	-1	-1	25	46	55	31	60	9	59	7	5	47	26	-1	23	40	-1	-1	27	18	15	-1	-1	8	30	56	-1	-1	64	-1	58	-1	34	-1	32	-1	-1	38	-1	-1	-1	54	51	57	11	44	48	6	-1	-1	-1
29	40	4	64	19	-1	-1	-1	10	-1	59	-1	24	-1	-1	-1	48	26	-1	-1	17	54	-1	47	8	-1	-1	5	33	62	-1	-1	35	-1	61	-1	-1	-1	55	-1	50	12	56	15	27	-1	-1	-1	57	-1	23	41	-1	-1	7	-1	-1	43	-1	3	30	-1	28	46
-1	34	50	-1	-1	-1	13	-1	-1	31	11	-1	44	-1	-1	35	-1	-1	12	-1	-1	24	-1	3	16	-1	-1	-1	-1	-1	28	-1	-1	26	-1	17	27	62	-1	63	-1	-1	22	5	-1	-1	-1	-1	60	6	-1	8	52	-1	58	-1	-1	-1	-1	19	10	2	-1	-1
-1	-1	60	51	-1	35	17	-1	-1	32	4	12	8	-1	56	-1	-1	-1	61	41	29	34	-1	25	3	-1	-1	-1	-1	10	57	-1	-1	46	42	-1	22	39	-1	-1	20	-1	6	-1	16	63	19	55	-1	48	-1	-1	45	30	-1	31	23	-1	-1	-1	59	18	13	-1
61	-1	38	-1	-1	3	57	9	-1	47	40	-1	62	-1	37	36	-1	52	22	-1	51	-1	-1	-1	56	46	59	-1	12	24	64	19	14	-1	-1	13	-1	2	16	-1	-1	30	-1	29	-1	49	54	23	-1	-1	15	35	50	-1	-1	28	-1	-1	17	27	58	-1	8	63
12	-1	52	-1	-1	59	-1	24	-1	19	15	26	-1	-1	-1	-1	61	-1	-1	-1	57	-1	-1	-1	38	-1	35	-1	-1	21	8	32	-1	-1	-1	-1	34	18	-1	41	13	-1	-1	6	56	9	-1	48	-1	-1	-1	-1	33	37	-1	29	54	23	-1	45	-1	-1	-1	39
8	-1	41	48	28	-1	30	-1	32	56	-1	-1	-1	3	35	-1	-1	-1	20	-1	-1	-1	-1	52	-1	-1	44	-1	9	-1	-1	23	51	-1	-1	6	-1	47	-1	16	-1	17	-1	-1	21	-1	27	5	15	7	-1	-1	-1	55	46	59	-1	49	14	26	60	-1	19	-1
15	-1	36	-1	-1	53	-1	54	-1	-1	49	45	25	-1	58	-1	-1	-1	46	3	-1	-1	29	-1	-1	-1	-1	-1	-1	64	-1	-1	-1	-1	-1	-1	12	9	37	13	14	-1	41	-1	38	10	52	-1	39	28	-1	-1	16	50	32	-1	-1	35	-1	56	31	62	-1	-1
-1	17	7	-1	29	1	-1	58	40	54	12	-1	-1	-1	-1	-1	-1	30	-1	36	-1	-1	-1	56	-1	5	-1	63	-1	52	-1	47	-1	27	-1	48	-1	15	-1	-1	19	60	-1	16	37	-1	-1	-1	62	31	-1	26	24	-1	-1	49	-1	55	8	-1	-1	22	-1	59
3	-1	-1	-1	-1	-1	-1	61	37	-1	-1	-1	-1	-1	-1	21	-1	10	17	-1	-1	38	39	13	-1	30	-1	56	7	43	55	51	45	-1	-1	32	-1	25	14	-1	-1	-1	46	8	-1	-1	36	18	12	40	60	-1	19	-1	-1	44	58	5	6	41	15	-1	24	48
25	14	-1	6	-1	-1	-1	37	-1	18	-1	-1	-1	17	13	-1	2	-1	59	-1	-1	31	40	-1	-1	61	45	46	16	33	-1	60	-1	-1	-1	5	-1	7	19	-1	-1	-1	-1	24	-1	-1	-1	-1	27	-1	20	56	54	35	-1	-1	-1	-1	-1	-1	3	10	-1	-1
19	46	-1	18	32	-1	55	16	9	44	34	41	-1	8	-1	4	60	-1	37	51	-1	27	-1	-1	59	-1	58	3	-1	14	-1	50	30	-1	62	-1	-1	35	-1	-1	-1	29	-1	-1	-1	-1	2	15	-1	45	57	-1	-1	-1	21	23	17	-1	-1	-1	-1	1	12	-1
-1	-1	-1	62	-1	56	-1	11	7	28	5	39	52	27	46	42	-1	-1	-1	19	24	-1	54	-1	1	20	36	49	4	-1	-1	-1	-1	-1	-1	21	59	-1	-1	60	-1	45	-1	-1	55	35	61	43	6	9	-1	13	-1	41	-1	-1	-1	-1	30	-1	51	-1	-1	16
23	-1	64	-1	-1	37	22	-1	61	-1	50	33	-1	-1	28	40	59	-1	35	-1	-1	-1	-1	10	26	27	52	-1	-1	7	62	-1	4	30	45	15	-1	56	-1	6	-1	44	9	21	-1	-1	-1	-1	-1	57	-1	18	-1	-1	8	1	-1	-1	20	12	-1	51	-1	-1
57	25	-1	11	12	21	61	-1	-1	-1	58	-1	-1	-1	-1	30	51	60	27	-1	-1	1	50	-1	-1	-1	63	-1	39	-1	20	-1	34	-1	3	-1	-1	-1	40	-1	4	35	62	-1	18	28	-1	19	32	46	-1	9	-1	5	-1	-1	59	-1	-1	17	43	-1	41	-1
63	44	-1	16	-1	30	-1	62	12	-1	-1	56	-1	7	36	11	26	29	-1	-1	-1	-1	-1	8	64	-1	-1	-1	51	-1	-1	-1	-1	5	10	-1	-1	-1	35	52	17	37	-1	-1	32	-1	38	6	-1	20	27	-1	31	13	59	42	28	58	34	-1	22	14	50	-1
-1	58	5	-1	-1	39	-1	48	19	-1	18	-1	41	64	24	-1	-1	-1	33	-1	22	-1	52	61	-1	-1	21	57	-1	-1	-1	1	-1	43	-1	36	17	32	31	-1	27	-1	-1	-1	20	59	-1	8	30	-1	-1	-1	35	29	4	14	62	54	49	-1	44	15	-1	-1
-1	32	-1	56	43	18	24	2	-1	15	-1	-1	59	21	-1	9	62	3	-1	-1	45	-1	-1	11	4	44	55	-1	58	-1	40	49	19	-1	-1	-1	20	50	27	12	-1	7	-1	1	39	29	-1	-1	-1	-1	-1	-1	28	-1	6	-1	63	-1	-1	-1	-1	30	-1	-1
-1	-1	-1	9	-1	15	-1	-1	62	-1	45	-1	-1	-1	-1	-1	49	-1	-1	12	58	4	38	-1	-1	-1	33	53	47	17	-1	-1	-1	59	55	-1	-1	64	22	28	63	42	14	48	23	-1	-1	-1	-1	-1	3	-1	-1	36	50	39	-1	57	37	18	-1	25	16	2
-1	-1	28	-1	1	51	-1	60	27	43	-1	46	-1	53	47	-1	-1	14	-1	-1	21	39	30	24	-1	-1	-1	12	-1	18	-1	37	63	-1	-1	-1	48	-1	-1	42	57	-1	26	-1	13	45	-1	25	41	15	62	52	-1	-1	-1	-1	11	-1	-1	-1	-1	-1	-1	-1
45	8	42	14	55	-1	-1	-1	-1	-1	25	20	-1	-1	-1	63	-1	-1	44	-1	-1	37	-1	-1	-1	-1	56	-1	3	-1	41	-1	13	51	49	-1	-1	-1	62	-1	58	-1	15	-1	-1	52	-1	-1	-1	-1	19	-1	53	12	-1	-1	-1	26	-1	-1	-1	-1	23	-1
64 
41 27 34 39
26 59 5 48
63 13 17 39
6 64 33 30
14 35 13 5
43 30 14 39
29 26 64 57
56 34 51 22
42 48 25 47
55 53 41 17
42 6 28 38
23 33 28 52
12 11 25 57
8 19 15 64
40 19 28 22
16 28 20 10
16 62 12 48
31 63 20 34
59 7 44 52
38 57 53 34
17 28 28 50
12 58 39 54
2 8 52 47
36 32 44 43
36 49 26 55
37 32 29 39
3 15 62 1
40 7 15 33
24 45 36 48
15 19 23 64
14 42 61 48
40 17 39 51
11 11 3 28
50 6 19 61
63 64 42 31
12 60 61 63
33 2 50 28
56 53 14 24
35 18 30 47
64 61 24 41
14 9 57 8
58 21 32 25
3 42 22 15
5 35 33 47
5 47 48 62
26 48 34 11
59 33 49 55
9 29 51 18
45 12 14 37
24 29 13 17
61 43 49 49
58 64 54 50
59 38 1 25
24 11 28 29
34 63 39 17
13 58 34 2
43 18 61 23
56 19 34 9
37 54 64 30
49 5 30 34
61 28 51 34
34 6 18 33
56 18 4 43
64 47 29 59
